benchmarks/VRPTW/TSPTW/solution/n60w80.005.txt.solution
1 21 25 15 54 37 18 10 60 6 45 43 11 52 48 51 57 34 17 2 19 29 16 53 26 55 23 5 7 58 13 49 22 38 30 31 56 14 39 12 41 44 32 4 20 50 33 35 42 36 9 46 28 40 3 47 59 8 27 61 24 
468
